WARNING: for repeatability, setting FPU to use double precision
============================[ Problem Statistics ]=============================
|                                                                             |
|  Number of variables:          4351                                         |
|  Number of clauses:           53235                                         |
|  Parse time:                   0.01 s                                       |
|  Eliminated clauses:           0.01 Mb                                      |
|  Simplification time:          0.01 s                                       |
|                                                                             |
============================[ Search Statistics ]==============================
| Conflicts |          ORIGINAL         |          LEARNT          | Progress |
|           |    Vars  Clauses Literals |    Limit  Clauses Lit/Cl |          |
===============================================================================
|       100 |     665     3791    11401 |     1390      100     14 | 61.733 % |
===============================================================================
restarts              : 3
conflicts             : 225            (7570 /sec)
decisions             : 920            (0.00 % random) (30955 /sec)
propagations          : 9209           (309848 /sec)
conflict literals     : 3137           (5.82 % deleted)
Memory used           : 24.00 MB
CPU time              : 0.029721 s

SATISFIABLE
